6,4,5,3,5,7,6,3,7,7,1,5,3,1,5,3,3,1,5,4,6,3,6,4,5,4,4,1,2,2,4,1,2,4,3,3,2,1,4,6,2,3,7,1,2,4,3,7,7,5,4,3,3,1,6,4,5,3,3,2,2,4,7,7,1,3,6,5,6,6,1,5,6,1,3,7,5,2,4,4,3,7,7,1,2,7,3,4,1,5,1,2,7,7,6,7,1,7,6,2
3,5,5,1,2,3,3,5,2,6,6,4,3,4,5,7,7,4,5,5,6,4,5,6,1,1,7,7,3,1,2,4,3,4,3,2,1,6,6,2,1,5,4,5,4,1,6,5,1,3,2,3,3,4,3,1,4,7,4,6,4,7,1,5,2,3,7,7,4,6,6,3,1,7,4,3,6,4,5,4,7,6,4,5,6,1,6,4,5,6,6,4,7,3,2,5,5,6,5,1
